nApps = 206
nRes = 9
nActs = 410
nNetworks = 6

assignmentToResources = [3,2,2,1,1,2,2,3,3,1,3,2,3,1,2,1,1,3,3,2,1,2,3,2,1,1,2,2,3,2,2,1,1,2,3,1,1,1,1,3,2,3,3,1,2,3,2,1,1,3,1,1,3,2,3,2,1,1,2,3,3,3,3,3,1,3,2,3,2,3,2,3,2,1,2,3,3,3,3,3,1,3,3,2,2,3,1,1,1,1,2,3,3,2,1,1,2,1,1,3,6,6,6,5,5,5,4,4,5,5,5,5,5,5,6,6,6,6,4,4,4,6,5,5,5,6,6,4,4,5,5,4,4,4,6,6,5,5,5,5,6,6,5,5,4,4,4,5,6,6,5,5,4,4,4,4,4,5,5,5,5,6,6,4,4,4,4,4,4,4,4,6,6,6,6,6,4,5,5,5,5,5,6,4,4,4,4,4,4,4,6,6,6,6,6,6,6,6,5,5,6,5,6,5,5,5,4,4,4,5,6,6,6,6,6,6,5,5,5,6,6,6,6,4,4,5,5,6,6,4,4,4,4,4,4,4,6,6,5,7,4,9,6,8,5,9,6,7,4,8,6,8,5,9,4,9,6,8,4,9,6,8,5,7,4,8,6,7,4,8,5,7,8,7,8,7,7,9,8,9,7,9,9,7,9,7,7,8,7,8,8,9,9,7,9,7,9,7,7,8,8,9,7,8,9,8,7,7,7,7,9,9,7,8,7,7,9,8,9,9,7,7,9,9,8,9,9,9,8,9,9,9,9,7,8,8,9,8,9,8,9,8,9,7,7,7,8,8,8,7,9,9,9,9,7,8,9,9,9,8,8,9,8,8,8,7,7,8,7,8,7,9,7,7,7,7,9,7,8,9,9,7,8,7,8,7,7,7,9,9,9,8,8,7,7,8,8,9,7,7,8,8,9,9,9,9,9,9,7,7];

processingTimes = [120,120,160,104,144,80,88,168,112,144,104,136,88,120,168,88,88,160,112,128,64,120,80,72,40,168,128,144,168,72,120,136,144,120,104,136,112,128,160,64,144,88,128,104,72,96,80,152,128,72,56,120,152,136,136,144,168,128,40,104,104,96,72,48,72,160,120,160,104,120,56,112,112,128,120,128,160,136,64,88,128,136,96,80,120,80,136,152,64,128,80,152,56,112,136,128,56,168,128,56,100,4,8,3,3,3,4,3,4,8,8,500,7,4,4,500,3,3,3,3,4,500,500,500,500,13,3,4,3,500,5,3,4,500,8,8,3,3,3,3,4,3,8,3,13,500,3,3,7,3,3,4,3,4,4,3,4,8,8,8,8,3,3,3,3,500,500,3,4,500,3,4,3,3,200,3,3,4,4,4,3,500,3,500,3,3,4,3,5,8,3,4,5,4,4,4,4,4,500,500,9,500,8,500,4,4,3,3,4,3,3,3,8,4,3,500,500,3,3,100,3,3,3,5,500,4,8,3,3,3,4,4,4,500,3,4,3,500,3,3,500,500,500,500,8,8,3,3,3,3,3,3,4,4,500,500,5,5,4,4,8,8,3,3,4,4,4,4,8,8,5,5,100,4,8,3,3,3,4,3,4,8,8,500,7,4,4,500,3,3,3,3,4,500,500,500,500,13,3,4,3,500,5,3,4,500,8,8,3,3,3,3,4,3,8,3,13,500,3,3,7,3,3,4,3,4,4,3,4,8,8,8,8,3,3,3,3,500,500,3,4,500,3,4,3,3,200,3,3,4,4,4,3,500,3,500,3,3,4,3,5,8,3,4,5,4,4,4,4,4,500,500,9,500,8,500,4,4,3,3,4,3,3,3,8,4,3,500,500,3,3,100,3,3,3,5,500,4,8,3,3,3,4,4,4,500,3,4,3,500];

periods = [1000,100000,10000,10000,10000,100000,10000,100000,100000,10000,100000,20000,20000,20000,10000,10000,5000,100000,100000,10000,10000,100000,100000,20000,100000,10000,100000,1000,100000,20000,20000,10000,100000,20000,20000,10000,100000,100000,5000,10000,10000,2000,10000,10000,100000,100000,20000,100000,10000,10000,10000,10000,100000,100000,10000,10000,100000,1000,20000,100000,20000,10000,20000,100000,100000,10000,10000,20000,10000,100000,100000,10000,100000,20000,5000,20000,100000,100000,10000,20000,10000,20000,20000,20000,2000,1000,20000,20000,100000,10000,100000,20000,100000,10000,100000,10000,5000,100000,100000,100000,1000,1000,1000,100000,10000,10000,10000,10000,100000,100000,100000,100000,10000,10000,100000,100000,100000,100000,10000,10000,10000,100000,20000,20000,20000,20000,20000,20000,20000,10000,10000,10000,10000,5000,100000,100000,10000,10000,10000,100000,100000,100000,20000,20000,100000,10000,10000,100000,100000,100000,20000,20000,10000,10000,10000,10000,100000,20000,20000,20000,20000,20000,20000,10000,10000,100000,100000,5000,5000,5000,5000,10000,2000,2000,2000,10000,10000,20000,20000,20000,20000,20000,10000,10000,10000,10000,100000,100000,1000,1000,100000,20000,10000,20000,20000,100000,100000,10000,10000,10000,20000,10000,100000,100000,100000,100000,20000,20000,20000,5000,20000,20000,20000,100000,10000,20000,20000,20000,2000,1000,1000,1000,1000,100000,100000,100000,100000,20000,20000,100000,100000,100000,100000,10000,10000,100000,100000,100000,10000,10000,100000,100000,100000,100000,20000,20000,20000,20000,20000,20000,20000,20000,20000,20000,20000,20000,100000,100000,100000,100000,20000,20000,20000,20000,20000,20000,10000,10000,10000,10000,10000,10000,1000,1000,1000,100000,10000,10000,10000,10000,100000,100000,100000,100000,10000,10000,100000,100000,100000,100000,10000,10000,10000,100000,20000,20000,20000,20000,20000,20000,20000,10000,10000,10000,10000,5000,100000,100000,10000,10000,10000,100000,100000,100000,20000,20000,100000,10000,10000,100000,100000,100000,20000,20000,10000,10000,10000,10000,100000,20000,20000,20000,20000,20000,20000,10000,10000,100000,100000,5000,5000,5000,5000,10000,2000,2000,2000,10000,10000,20000,20000,20000,20000,20000,10000,10000,10000,10000,100000,100000,1000,1000,100000,20000,10000,20000,20000,100000,100000,10000,10000,10000,20000,10000,100000,100000,100000,100000,20000,20000,20000,5000,20000,20000,20000,100000,10000,20000,20000,20000,2000,1000,1000,1000,1000,100000,100000,100000,100000,20000,20000,100000,100000,100000,100000,10000,10000,100000,100000,100000];

assignmentToClusters = [1,2,3,4,5,6,7,8,8,9,10,11,12,13,14,15,16,8,8,17,18,19,10,20,21,22,23,24,8,25,12,26,27,12,12,28,29,30,31,32,5,33,34,35,23,23,12,36,37,38,39,34,10,23,40,34,41,42,12,43,44,45,13,46,10,47,48,49,50,51,10,52,53,25,54,25,10,10,55,56,34,57,58,25,59,60,12,12,61,62,63,12,8,64,65,66,67,68,23,10,69,70,71,72,73,74,75,76,77,78,79,80,81,82,83,84,85,86,87,88,89,90,91,92,93,94,95,96,97,98,99,100,101,102,103,104,105,106,107,108,109,110,111,112,113,114,115,116,117,118,119,120,121,122,123,124,125,126,127,128,129,130,131,132,133,134,135,136,137,138,139,140,141,142,143,144,145,146,147,148,149,150,151,152,153,154,155,156,157,158,159,160,161,162,163,164,165,166,167,168,169,170,171,172,173,174,175,176,177,178,179,180,181,182,183,184,185,186,187,188,189,190,191,192,193,194,195,196,197,198,199,200,201,202,203,204,205,206,5,5,10,10,10,10,12,12,12,12,12,12,12,12,12,12,13,13,23,23,23,23,25,25,25,25,25,25,34,34,34,34,34,34,69,70,71,72,73,74,75,76,77,78,79,80,81,82,83,84,85,86,87,88,89,90,91,92,93,94,95,96,97,98,99,100,101,102,103,104,105,106,107,108,109,110,111,112,113,114,115,116,117,118,119,120,121,122,123,124,125,126,127,128,129,130,131,132,133,134,135,136,137,138,139,140,141,142,143,144,145,146,147,148,149,150,151,152,153,154,155,156,157,158,159,160,161,162,163,164,165,166,167,168,169,170,171,172,173,174,175,176,177,178,179,180,181,182,183,184,185,186,187,188,189,190,191,192,193,194,195,196,197,198,199,200,201,202,203,204,205,206];

precedenceAdjList = [[],[],[],[],[239],[],[],[8],[],[],[52],[],[245],[],[],[],[],[18],[92],[],[],[],[241],[],[],[],[53,44],[],[7],[261],[58],[],[],[],[253],[],[],[],[],[],[],[],[],[],[],[259],[58],[],[],[],[],[267],[77,99],[257],[],[269],[],[],[249,251],[],[],[],[255],[],[],[],[],[],[],[],[243],[],[],[263],[],[],[22],[],[],[],[271],[],[],[265],[],[],[],[247],[],[],[],[12],[7],[],[],[],[],[],[],[76],[],[],[],[],[],[],[],[],[],[],[],[],[],[],[],[],[],[],[],[],[],[],[],[],[],[],[],[],[],[],[],[],[],[],[],[],[],[],[],[],[],[],[],[],[],[],[],[],[],[],[],[],[],[],[],[],[],[],[],[],[],[],[],[],[],[],[],[],[],[],[],[],[],[],[],[],[],[],[],[],[],[],[],[],[],[],[],[],[],[],[],[],[],[],[],[],[],[],[],[],[],[],[],[],[],[],[],[],[],[],[],[],[],[],[],[],[],[],[],[],[],[],[],[],[],[],[],[],[],[],[],[],[],[],[],[],[],[],[40],[238],[64],[240],[10],[242],[33],[244],[12],[246],[86],[248],[91],[250],[30],[252],[13],[254],[45],[256],[98],[258],[75],[260],[29],[262],[73],[264],[42],[266],[51],[268],[55],[270],[100],[101],[102],[103],[104],[105],[106],[107],[108],[109],[110],[111],[112],[113],[114],[115],[116],[117],[118],[119],[120],[121],[122],[123],[124],[125],[126],[127],[128],[129],[130],[131],[132],[133],[134],[135],[136],[137],[138],[139],[140],[141],[142],[143],[144],[145],[146],[147],[148],[149],[150],[151],[152],[153],[154],[155],[156],[157],[158],[159],[160],[161],[162],[163],[164],[165],[166],[167],[168],[169],[170],[171],[172],[173],[174],[175],[176],[177],[178],[179],[180],[181],[182],[183],[184],[185],[186],[187],[188],[189],[190],[191],[192],[193],[194],[195],[196],[197],[198],[199],[200],[201],[202],[203],[204],[205],[206],[207],[208],[209],[210],[211],[212],[213],[214],[215],[216],[217],[218],[219],[220],[221],[222],[223],[224],[225],[226],[227],[228],[229],[230],[231],[232],[233],[234],[235],[236],[237]];